* ENCODING=ISO-8859-1
NAME          CPLEX
ROWS
 N  obj1    
 G  c1      
 G  c2      
 G  c3      
 G  c4      
 G  c5      
 G  c6      
 G  c7      
 G  c8      
 G  c9      
 G  c10     
 G  c11     
 G  c12     
 G  c13     
 G  c14     
 G  c15     
 G  c16     
 G  c17     
 G  c18     
 G  c19     
 G  c20     
 G  c21     
 G  c22     
 G  c23     
 G  c24     
 G  c25     
 G  c26     
 G  c27     
 G  c28     
 G  c29     
 G  c30     
 G  c31     
 G  c32     
 G  c33     
 G  c34     
 G  c35     
 G  c36     
 G  c37     
 G  c38     
 G  c39     
 G  c40     
 G  c41     
 G  c42     
 G  c43     
 G  c44     
 G  c45     
 G  c46     
 G  c47     
 G  c48     
 G  c49     
 G  c50     
COLUMNS
    MARK0000  'MARKER'                 'INTORG'
    x1        obj1                            1
    x1        c24                           937
    x1        c27                           206
    x1        c33                           360
    x1        c39                           899
    x2        obj1                            1
    x2        c1                            904
    x2        c25                           892
    x2        c47                           835
    x2        c49                           361
    x3        obj1                            1
    x3        c7                            283
    x3        c11                           818
    x3        c30                           760
    x3        c40                           326
    x3        c50                           289
    x4        obj1                            1
    x4        c6                            465
    x4        c7                            955
    x4        c8                            950
    x4        c13                           735
    x4        c19                           656
    x4        c22                           813
    x4        c27                           148
    x4        c28                           804
    x4        c46                           960
    x5        obj1                            1
    x5        c4                            983
    x5        c29                           704
    x5        c40                           437
    x5        c49                           335
    x6        obj1                            1
    x6        c3                            776
    x6        c13                           151
    x6        c24                           270
    x6        c25                           143
    x6        c34                           448
    x6        c38                           467
    x6        c39                           631
    x6        c47                           657
    x7        obj1                            1
    x7        c48                           200
    x8        obj1                            1
    x8        c3                            499
    x8        c26                           428
    x8        c30                           776
    x8        c35                           588
    x8        c36                           340
    x8        c38                           357
    x8        c40                           874
    x9        obj1                            1
    x9        c1                            849
    x9        c2                            392
    x9        c9                            654
    x9        c22                           976
    x9        c26                           788
    x9        c33                           756
    x9        c37                           694
    x9        c45                           195
    x9        c47                           949
    x10       obj1                            1
    x10       c4                            228
    x10       c22                           550
    x10       c41                           285
    x10       c44                           552
    x11       obj1                            1
    x11       c2                            481
    x11       c15                           175
    x11       c21                           617
    x12       obj1                            1
    x12       c14                           508
    x12       c32                           404
    x12       c36                           337
    x12       c44                           712
    x12       c46                           128
    x13       obj1                            1
    x13       c6                            633
    x13       c11                           175
    x13       c20                           703
    x13       c37                           250
    x13       c42                           488
    x14       obj1                            1
    x14       c1                            531
    x14       c4                            212
    x14       c9                            629
    x14       c10                           679
    x14       c21                           293
    x14       c24                           857
    x14       c31                           857
    x14       c34                           581
    x14       c36                           406
    x14       c37                           751
    x14       c48                           295
    x15       obj1                            1
    x15       c11                           930
    x15       c12                           396
    x15       c19                           234
    x16       obj1                            1
    x16       c8                            676
    x16       c12                           262
    x16       c13                           579
    x16       c14                           609
    x16       c21                           685
    x17       obj1                            1
    x17       c5                            400
    x17       c8                            518
    x17       c24                           107
    x17       c35                           660
    x17       c46                           598
    x18       obj1                            1
    x18       c8                            739
    x18       c18                           282
    x18       c23                           392
    x18       c27                           256
    x18       c28                           589
    x19       obj1                            1
    x19       c4                            879
    x19       c6                            854
    x19       c20                           824
    x19       c23                           995
    x19       c42                           302
    x19       c47                           848
    x20       obj1                            1
    x20       c16                           991
    x20       c20                           670
    x20       c21                           283
    x20       c33                           433
    x20       c35                           859
    x20       c41                           230
    x20       c43                           178
    x21       obj1                            1
    x21       c6                            980
    x21       c13                           905
    x21       c17                           348
    x21       c29                           699
    x21       c37                           148
    x21       c40                           191
    x22       obj1                            1
    x22       c26                           971
    x22       c30                           392
    x22       c31                           437
    x22       c35                           480
    x23       obj1                            1
    x23       c1                            632
    x23       c3                            800
    x23       c41                           411
    x23       c45                           748
    x23       c48                           195
    x24       obj1                            1
    x24       c15                           470
    x25       obj1                            1
    x25       c1                            429
    x25       c10                           282
    x25       c36                           235
    x25       c37                           653
    x26       obj1                            1
    x26       c2                            597
    x26       c8                            417
    x26       c35                           446
    x26       c46                           982
    x27       obj1                            1
    x27       c2                            410
    x27       c7                            481
    x27       c30                           751
    x27       c34                           132
    x27       c35                           279
    x27       c41                           703
    x27       c50                           772
    x28       obj1                            1
    x28       c7                            591
    x28       c11                           242
    x28       c17                           935
    x28       c23                           752
    x28       c36                           453
    x29       obj1                            1
    x29       c9                            759
    x29       c14                           540
    x29       c44                           552
    x29       c45                           381
    x30       obj1                            1
    x30       c13                           638
    x30       c25                           453
    x30       c32                           658
    x30       c38                           654
    x31       obj1                            1
    x31       c5                            156
    x31       c6                            705
    x31       c17                           474
    x31       c28                           754
    x31       c45                           107
    x32       obj1                            1
    x32       c2                            985
    x32       c12                           133
    x32       c27                           495
    x32       c43                           940
    x32       c49                           274
    x33       obj1                            1
    x33       c2                            752
    x33       c4                            303
    x33       c6                            851
    x33       c12                           949
    x33       c15                           372
    x33       c23                           825
    x33       c30                           226
    x33       c31                           987
    x33       c32                           648
    x33       c41                           167
    x33       c43                           783
    x33       c44                           741
    x33       c46                           986
    x34       obj1                            1
    x34       c3                            679
    x34       c5                            945
    x34       c9                            852
    x34       c13                           210
    x34       c15                           823
    x34       c20                           998
    x34       c42                           908
    x35       obj1                            1
    x35       c14                           334
    x35       c28                           689
    x35       c29                           632
    x36       obj1                            1
    x36       c2                            949
    x37       obj1                            1
    x37       c8                            825
    x37       c30                           392
    x37       c33                           194
    x38       obj1                            1
    x38       c11                           124
    x38       c26                           127
    x38       c37                           236
    x38       c44                           183
    x39       obj1                            1
    x39       c5                            121
    x39       c14                           946
    x39       c16                           734
    x39       c31                           356
    x39       c36                           881
    x39       c40                           674
    x40       obj1                            1
    x40       c9                            329
    x40       c19                           980
    x40       c25                           646
    x40       c28                           911
    x40       c38                           698
    x41       obj1                            1
    x41       c28                           279
    x41       c37                           733
    x41       c41                           866
    x42       obj1                            1
    x42       c10                           620
    x42       c15                           137
    x42       c18                           629
    x42       c25                           920
    x42       c32                           813
    x43       obj1                            1
    x43       c1                            162
    x43       c5                            325
    x43       c20                           759
    x43       c34                           119
    x43       c36                           203
    x43       c41                           185
    x43       c44                           141
    x43       c48                           330
    x44       obj1                            1
    x44       c5                            502
    x44       c12                           322
    x44       c16                           821
    x44       c28                           532
    x45       obj1                            1
    x45       c38                           157
    x46       obj1                            1
    x46       c11                           550
    x46       c12                           806
    x46       c13                           193
    x46       c22                           650
    x46       c35                           395
    x46       c40                           566
    x46       c43                           406
    x46       c50                           784
    x47       obj1                            1
    x47       c4                            194
    x47       c8                            785
    x47       c9                            755
    x47       c16                           405
    x47       c23                           185
    x47       c26                           773
    x47       c29                           404
    x47       c45                           828
    x47       c46                           974
    x47       c48                           624
    x48       obj1                            1
    x48       c3                            542
    x48       c4                            750
    x48       c9                            755
    x48       c25                           570
    x48       c29                           129
    x48       c40                           599
    x48       c44                           853
    x49       obj1                            1
    x49       c3                            381
    x49       c11                           211
    x49       c15                           341
    x49       c17                           390
    x49       c18                           808
    x49       c26                           478
    x49       c43                           171
    x50       obj1                            1
    x50       c12                           231
    x50       c17                           140
    x50       c19                           367
    x50       c39                           694
    x50       c43                           746
    x50       c48                           802
    MARK0001  'MARKER'                 'INTEND'
RHS
    rhs       c1                           1754
    rhs       c2                           2283
    rhs       c3                           1839
    rhs       c4                           1775
    rhs       c5                           1225
    rhs       c6                           2244
    rhs       c7                           1155
    rhs       c8                           2455
    rhs       c9                           2367
    rhs       c10                           791
    rhs       c11                          1525
    rhs       c12                          1550
    rhs       c13                          1706
    rhs       c14                          1469
    rhs       c15                          1159
    rhs       c16                          1476
    rhs       c17                          1144
    rhs       c18                           860
    rhs       c19                          1119
    rhs       c20                          1977
    rhs       c21                           939
    rhs       c22                          1495
    rhs       c23                          1575
    rhs       c24                          1086
    rhs       c25                          1812
    rhs       c26                          1783
    rhs       c27                           553
    rhs       c28                          2279
    rhs       c29                          1284
    rhs       c30                          1649
    rhs       c31                          1319
    rhs       c32                          1262
    rhs       c33                           872
    rhs       c34                           640
    rhs       c35                          1854
    rhs       c36                          1428
    rhs       c37                          1733
    rhs       c38                          1167
    rhs       c39                          1112
    rhs       c40                          1834
    rhs       c41                          1424
    rhs       c42                           849
    rhs       c43                          1612
    rhs       c44                          1867
    rhs       c45                          1130
    rhs       c46                          2314
    rhs       c47                          1645
    rhs       c48                          1223
    rhs       c49                           485
    rhs       c50                           923
BOUNDS
 LI bnd       x1        0
 LI bnd       x2        0
 LI bnd       x3        0
 LI bnd       x4        0
 LI bnd       x5        0
 LI bnd       x6        0
 LI bnd       x7        0
 LI bnd       x8        0
 LI bnd       x9        0
 LI bnd       x10       0
 LI bnd       x11       0
 LI bnd       x12       0
 LI bnd       x13       0
 LI bnd       x14       0
 LI bnd       x15       0
 LI bnd       x16       0
 LI bnd       x17       0
 LI bnd       x18       0
 LI bnd       x19       0
 LI bnd       x20       0
 LI bnd       x21       0
 LI bnd       x22       0
 LI bnd       x23       0
 LI bnd       x24       0
 LI bnd       x25       0
 LI bnd       x26       0
 LI bnd       x27       0
 LI bnd       x28       0
 LI bnd       x29       0
 LI bnd       x30       0
 LI bnd       x31       0
 LI bnd       x32       0
 LI bnd       x33       0
 LI bnd       x34       0
 LI bnd       x35       0
 LI bnd       x36       0
 LI bnd       x37       0
 LI bnd       x38       0
 LI bnd       x39       0
 LI bnd       x40       0
 LI bnd       x41       0
 LI bnd       x42       0
 LI bnd       x43       0
 LI bnd       x44       0
 LI bnd       x45       0
 LI bnd       x46       0
 LI bnd       x47       0
 LI bnd       x48       0
 LI bnd       x49       0
 LI bnd       x50       0
ENDATA
